10 10 3

0 365 380 95 432 438 140 233 422 336 
439 0 116 146 155 216 313 258 72 154 
85 500 0 298 459 118 170 154 461 457 
55 348 86 0 253 212 416 54 350 109 
144 82 482 430 0 227 97 282 332 470 
95 296 248 406 331 0 248 203 289 72 
79 150 483 243 155 86 0 279 114 455 
402 119 304 217 420 92 405 0 106 477 
452 338 308 178 139 311 132 251 0 141 
330 161 137 109 190 237 298 383 98 0 

80.5 0 1
80.5 1 3
80.5 2 3
80.5 3 8
80.5 4 3
80.5 5 6
80.5 6 3
80.5 7 6
80.5 8 2
80.5 9 1

